WARNING: for repeatability, setting FPU to use double precision
============================[ Problem Statistics ]=============================
|                                                                             |
|  Number of variables:           700                                         |
|  Number of clauses:           25690                                         |
|  Parse time:                   0.01 s                                       |
|  Eliminated clauses:           0.00 Mb                                      |
|  Simplification time:          0.08 s                                       |
|                                                                             |
============================[ Search Statistics ]==============================
| Conflicts |          ORIGINAL         |          LEARNT          | Progress |
|           |    Vars  Clauses Literals |    Limit  Clauses Lit/Cl |          |
===============================================================================
|       100 |     560    24990   117600 |     9163      100     36 |  0.000 % |
|       250 |     560    24990   117600 |    10079      250     45 |  0.001 % |
|       475 |     560    24990   117600 |    11087      475     50 |  0.001 % |
|       812 |     560    24990   117600 |    12195      812     54 |  0.000 % |
|      1318 |     560    24990   117600 |    13415     1318     56 |  0.000 % |
|      2077 |     560    24990   117600 |    14757     2077     55 |  0.000 % |
|      3216 |     560    24990   117600 |    16232     3216     57 |  0.000 % |
|      4924 |     560    24990   117600 |    17856     4924     56 |  0.000 % |
|      7486 |     560    24990   117600 |    19641     7486     56 |  0.000 % |
|     11330 |     560    24990   117600 |    21605    11330     56 |  0.000 % |
|     17096 |     560    24990   117600 |    23766    17096     56 |  0.000 % |
|     25745 |     560    24990   117600 |    26143    12992     55 |  0.000 % |
|     38719 |     560    24990   117600 |    28757    25966     55 |  0.000 % |
|     58180 |     560    24990   117600 |    31633    27727     54 |  0.000 % |
|     87372 |     560    24990   117600 |    34796    16005     51 |  0.000 % |
|    131161 |     560    24990   117600 |    38276    13953     56 |  0.001 % |
|    196845 |     560    24990   117600 |    42103    26663     55 |  0.000 % |
|    295371 |     560    24990   117600 |    46314    34850     52 |  0.001 % |
|    443160 |     560    24990   117600 |    50945    44454     58 |  0.000 % |
|    664843 |     560    24990   117600 |    56040    33663     51 |  0.000 % |
|    997368 |     560    24990   117600 |    61644    15896     55 |  0.001 % |
|   1496156 |     560    24990   117600 |    67808    24168     55 |  0.000 % |
|   2244338 |     560    24990   117600 |    74589    59677     55 |  0.000 % |
|   3366612 |     560    24990   117600 |    82048    20047     53 |  0.000 % |
|   5050023 |     560    24990   117600 |    90253    60460     50 |  0.000 % |
===============================================================================
restarts              : 8798
conflicts             : 5589440        (13077 /sec)
decisions             : 7499986        (0.00 % random) (17547 /sec)
propagations          : 322212233      (753845 /sec)
conflict literals     : 303844222      (19.47 % deleted)
Memory used           : 104.00 MB
CPU time              : 427.425 s

SATISFIABLE
